1 -1 -2 0
1 3 -4 0
1 5 6 0
1 5 -7 0
1 8 9 0
1 -10 11 0
1 -10 -12 0
1 -10 -13 0
1 -2 14 0
1 -7 -15 0
1 16 -8 0
1 -16 -10 0
1 9 -8 0
1 -12 -4 0
1 -12 17 0
1 18 -19 0
1 -18 3 0
1 20 -21 0
1 -20 -22 0
1 20 18 0
1 -6 12 0
1 -6 16 0
1 -6 5 0
1 6 23 0
1 6 15 0
1 -4 16 0
1 -4 -5 0
1 -4 -24 0
1 -4 6 0
1 -4 15 0
1 -4 -3 0
1 25 -18 0
1 25 -17 0
1 -21 -26 0
1 21 -27 0
1 -28 25 0
1 -17 -12 0
1 17 -9 0
1 26 22 0
1 -26 -9 0
1 14 -29 0
1 30 2 0
1 -30 31 0
1 30 -7 0
1 29 32 0
1 -33 34 0
1 31 30 0
1 -31 -35 0
1 -31 -36 0
1 15 -29 0
1 -15 10 0
1 23 -29 0
1 -23 37 0
1 -32 -38 0
1 -32 21 0
1 32 -6 0
1 -39 -23 0
1 -39 -36 0
1 -40 -32 0
1 -41 32 0
1 41 -42 0
1 -42 -30 0
1 42 -15 0
1 -24 -38 0
1 -24 -20 0
1 -24 -26 0
1 -24 -39 0
1 24 43 0
1 24 -44 0
1 44 45 0
1 -46 38 0
1 47 -17 0
1 38 10 0
1 -37 24 0
1 -37 -23 0
1 37 44 0
1 43 -7 0
